#######################################
### Exact MIP solver for the HHCRSP ###
#######################################
-- Instance file: new-instances/HHCRSP_50_10_85_0.4_C_C.txt
-- Max threads: 4
-- Time limit: 999999 seconds
-- Use initial solution: No
Trivial flow violations prevented generating 5836 variables.
Model exported.
Version identifier: 20.1.0.0 | 2020-11-10 | 9bedb6d68
CPXPARAM_Threads                                 4
CPXPARAM_TimeLimit                               999999
Parallel mode: deterministic, using up to 4 threads for concurrent optimization:
 * Starting dual Simplex on 1 thread...
 * Starting Barrier on 3 threads...
Tried aggregator 1 time.
LP Presolve eliminated 1428 rows and 413 columns.
Reduced LP has 7568 rows, 7325 columns, and 64614 nonzeros.
Presolve time = 0.03 sec. (18.88 ticks)
Symmetry aggregator did 6077 additional substitutions.

Iteration log . . .
Iteration:     1   Dual objective     =             0.000000

Dual crossover.
  Dual:  Fixing 91 variables.
       90 DMoves:  Infeasibility  2.72004819e-14  Objective  1.17666667e+02
        0 DMoves:  Infeasibility  1.63202962e-14  Objective  1.17666667e+02
  Dual:  Pushed 7, exchanged 84.
  Primal:  Fixing 31 variables.
       30 PMoves:  Infeasibility  1.66533454e-16  Objective  1.17666667e+02
        0 PMoves:  Infeasibility  2.22044605e-16  Objective  1.17666667e+02
  Primal:  Pushed 5, exchanged 26.

Dual simplex solved model.


Solution status from MIP model:
-- Processing time: 0.074 sec.
-- Memory used: 73.5693 MB
-- Best bound: inf
-- Obj value: 117.667
-- Gap: inf%
-- Total distance: 353
-- Total tardiness: 0
-- Largest tardiness: 0
